/*-------------Vikentios Vitalis el18803----------------------*/
/* Objective function */
max: 8*X1 + 8*X2 + 8*X3 + 7*X4+ 7*X5 + 7*X6;

X1 + X4 <= 2000;
X2 + X5 <= 3000;
X3 + X6 <= 1700;
X1 + X4 = 1.3*X3 + 1.3*X6;
X2 + X5 <= 1.3*X3 + 1.3*X6;
-1.3*X1 - 1.3*X4 <= -X2 - X5;
-1.3*X1 - 1.3*X4 <= -X2 - X5;
X2 + X5 <= 0.9*X1 + 0.9*X2 + 0.9*X3 + 0.9*X4 + 0.9*X5 + 0.9*X6;
X1+X2+X3 <= 5000;
X4+X5+X6 <= 3000;

60*X1 + 50*X4 <= 100000;
60*X2 + 50*X5 <= 160000;
60*X3 + 50*X6 <= 60000;
/* Variable bounds */